networks/zoo_88_758/zoo_88_758.txt
Number of groups: 53
Flow 1: {1 37} {37 5} {5 49} 
Flow 9: {2 37} 
Flow 35: {3 44} {44 35} {35 79} 
Flow 37: {37 38} {38 82} 
Flow 41: {4 44} {44 3} {3 47} 
Flow 72: {5 37} {37 42} {42 86} 
Flow 75: {6 37} {37 7} {7 51} 
Flow 89: {25 13} {13 57} 
Flow 93: {18 19} {19 63} 
Flow 96: {28 23} {23 67} 
Flow 126: {8 7} {7 37} {37 34} {34 78} 
Flow 131: {9 37} {37 81} 
Flow 135: {44 4} {4 48} 
Flow 139: {7 8} {8 52} 
Flow 141: {28 11} {11 55} 
Flow 142: {28 12} {12 56} 
Flow 146: {27 16} {16 60} 
Flow 147: {27 17} {17 61} 
Flow 152: {28 22} {22 66} 
Flow 154: {28 24} {24 68} 
Flow 156: {27 26} {26 70} 
Flow 160: {27 31} {31 75} 
Flow 165: {44 36} {36 80} 
Flow 168: {37 39} {39 83} 
Flow 170: {37 41} {41 85} 
Flow 172: {10 37} {37 43} {43 87} 
Flow 176: {11 28} {28 37} {37 10} {10 54} 
Flow 188: {12 28} 
Flow 205: {13 25} {25 27} {27 32} {32 76} 
Flow 211: {14 27} 
Flow 219: {15 27} 
Flow 226: {16 27} {27 37} {37 6} {6 50} 
Flow 250: {17 27} {27 14} {14 58} 
Flow 282: {19 18} {18 28} {28 21} {21 65} 
Flow 297: {20 28} {28 72} 
Flow 302: {22 28} 
Flow 305: {23 28} 
Flow 315: {24 28} {28 18} {18 62} 
Flow 358: {26 27} 
Flow 459: {29 40} {40 37} {37 44} {44 88} 
Flow 460: {30 37} {37 1} {1 45} 
Flow 507: {31 27} 
Flow 517: {32 27} {27 25} {25 69} 
Flow 522: {33 35} {35 44} {44 37} {37 2} {2 46} 
Flow 552: {34 37} {37 40} {40 29} {29 73} 
Flow 582: {35 33} {33 77} 
Flow 590: {36 44} 
Flow 618: {27 71} 
Flow 640: {38 37} {37 9} {9 53} 
Flow 657: {40 84} 
Flow 692: {41 37} {37 30} {30 74} 
Flow 700: {42 37} {37 28} {28 20} {20 64} 
Flow 710: {43 37} {37 27} {27 15} {15 59} 
Time taken running everything: 23 seconds
